NAME           NO_TITLE
ROWS
 N       OBJ
 E  R0000000
 E  R0000001
 E  R0000002
 L  R0000003
COLUMNS
    C0000000       OBJ  1
    C0000001  R0000000  19
    C0000001  R0000001  12
    C0000002  R0000001  21
    C0000002  R0000002  12
    C0000003  R0000000  -17
    C0000004  R0000000  21
    C0000005  R0000002  16
RHS
    RHS1      R0000000  1
    RHS1      R0000001  1
    RHS1      R0000002  1
BOUNDS
 FR BND1      C0000001
 FR BND1      C0000002
 FR BND1      C0000003
 FR BND1      C0000004
 FR BND1      C0000005
QSECTION           OBJ
    C0000000  C0000000  2
CSECTION      CONE0000   0  QUAD
    C0000000 
    C0000001 
    C0000002 
    C0000003 
    C0000004 
    C0000005 
ENDATA
